(set-logic QF_SLIA)
(set-option :produce-models true)
(declare-fun x () String)
(assert (str.in_re x (re.+ (re.union (re.union (re.range "7" "8") (re.range "0" "5")) (str.to_re "11")))))
(assert (= (mod (mod (str.to_int x) 156) 6) 0))
(assert (> (str.len x) 100))
(check-sat)
(get-model)